c Inverter, but with -set out 1'b1
c generated by ezSAT
p cnf 9 19
   1           0
  -2           0
   3  -2   4   0
  -4  -3       0
  -4   2       0
   4   3  -5   0
   5  -4       0
   5  -3       0
   5           0
  -6   3   7   0
  -7   6       0
  -7  -3       0
   6  -3   8   0
  -8  -6       0
  -8   3       0
   7   8  -9   0
   9  -7       0
   9  -8       0
   9           0
